data/instances/vrp_files/train_61.vrp
NAME : 61
COMMENT : Generated instance No. 61
TYPE : CVRP
DIMENSION : 21
EDGE_WEIGHT_TYPE : EUC_2D
CAPACITY : 30
NODE_COORD_SECTION
 1 838 361
 2 809 146
 3 342 864
 4 154 82
 5 484 302
 6 563 803
 7 137 580
 8 505 144
 9 623 273
 10 487 82
 11 459 306
 12 822 56
 13 418 458
 14 725 574
 15 667 777
 16 862 313
 17 538 840
 18 989 889
 19 371 195
 20 489 741
 21 492 483
DEMAND_SECTION
1 0
2 3
3 2
4 7
5 7
6 4
7 9
8 8
9 1
10 1
11 5
12 6
13 3
14 9
15 10
16 6
17 4
18 7
19 8
20 9
21 6
DEPOT_SECTION
 1
 -1
EOF